problem_generation/data/GISP/train/er_n=66_m=1322_p=0.60_SET2_setparam=100.00_alpha=0.50_836.lp
maximize
OBJ:100x0 + 100x1 + 100x2 + 100x3 + 100x4 + 100x5 + 100x6 + 100x7 + 100x8 + 100x9 + 100x10 + 100x11 + 100x12 + 100x13 + 100x14 + 100x15 + 100x16 + 100x17 + 100x18 + 100x19 + 100x20 + 100x21 + 100x22 + 100x23 + 100x24 + 100x25 + 100x26 + 100x27 + 100x28 + 100x29 + 100x30 + 100x31 + 100x32 + 100x33 + 100x34 + 100x35 + 100x36 + 100x37 + 100x38 + 100x39 + 100x40 + 100x41 + 100x42 + 100x43 + 100x44 + 100x45 + 100x46 + 100x47 + 100x48 + 100x49 + 100x50 + 100x51 + 100x52 + 100x53 + 100x54 + 100x55 + 100x56 + 100x57 + 100x58 + 100x59 + 100x60 + 100x61 + 100x62 + 100x63 + 100x64 + 100x65 - y15_21 - y55_57 - y36_53 - y7_26 - y36_62 - y28_58 - y18_35 - y29_32 - y9_63 - y40_41 - y0_14 - y6_48 - y11_14 - y40_50 - y29_59 - y40_59 - y21_55 - y33_38 - y2_32 - y44_56 - y51_64 - y2_59 - y3_24 - y14_24 - y22_37 - y43_60 - y24_65 - y14_51 - y7_12 - y47_48 - y55_61 - y7_21 - y18_30 - y29_36 - y21_32 - y0_9 - y29_45 - y21_41 - y6_52 - y2_27 - y54_65 - y3_28 - y32_64 - y13_60 - y35_60 - y14_37 - y16_65 - y36_43 - y28_39 - y55_65 - y17_48 - y59_63 - y9_44 - y5_55 - y17_57 - y5_64 - y29_31 - y29_40 - y21_36 - y6_56 - y40_58 - y54_60 - y25_33 - y13_46 - y35_46 - y35_55 - y24_64 - y17_25 - y17_34 - y36_47 - y9_30 - y5_41 - y17_52 - y28_52 - y9_48 - y58_62 - y9_57 - y50_58 - y6_33 - y21_31 - y29_44 - y39_48 - y20_53 - y54_55 - y2_26 - y54_64 - y10_39 - y12_58 - y13_32 - y24_32 - y3_9 - y32_45 - y13_41 - y35_41 - y3_18 - y13_50 - y16_46 - y1_57 - y13_59 - y16_55 - y17_20 - y16_64 - y5_27 - y5_45 - y6_10 - y28_56 - y5_63 - y50_62 - y6_37 - y42_58 - y21_35 - y6_46 - y19_65 - y39_43 - y20_39 - y10_16 - y62_63 - y12_44 - y20_57 - y31_57 - y23_53 - y2_30 - y4_49 - y12_62 - y13_27 - y23_62 - y3_4 - y24_27 - y32_40 - y1_34 - y51_53 - y32_49 - y24_45 - y35_45 - y43_58 - y1_52 - y24_54 - y1_61 - y24_63 - y9_11 - y46_60 - y9_29 - y5_58 - y6_23 - y27_55 - y50_57 - y8_60 - y19_60 - y0_56 - y20_34 - y39_47 - y2_7 - y20_43 - y39_56 - y12_39 - y23_39 - y2_16 - y12_48 - y54_63 - y4_44 - y16_18 - y1_29 - y4_62 - y16_27 - y32_44 - y35_40 - y16_36 - y13_49 - y17_19 - y1_65 - y9_15 - y49_51 - y5_26 - y57_64 - y9_24 - y38_60 - y5_35 - y28_37 - y49_60 - y9_33 - y7_63 - y27_41 - y6_18 - y19_46 - y27_59 - y19_64 - y11_60 - y12_25 - y39_42 - y39_51 - y12_34 - y20_47 - y31_47 - y12_43 - y31_56 - y4_39 - y1_15 - y23_61 - y1_33 - y24_35 - y16_31 - y1_42 - y13_44 - y24_44 - y37_63 - y9_10 - y38_46 - y57_59 - y26_53 - y5_30 - y7_58 - y50_56 - y11_37 - y0_46 - y0_55 - y11_55 - y20_33 - y31_33 - y39_46 - y20_51 - y4_34 - y31_51 - y23_47 - y4_43 - y16_17 - y1_28 - y4_61 - y22_60 - y1_37 - y3_65 - y5_7 - y5_16 - y5_25 - y49_59 - y18_53 - y7_62 - y18_62 - y27_49 - y0_32 - y11_32 - y0_41 - y8_54 - y42_56 - y11_50 - y30_63 - y4_11 - y0_59 - y41_60 - y31_37 - y44_65 - y1_5 - y13_16 - y4_47 - y34_48 - y45_48 - y1_23 - y24_25 - y37_44 - y45_57 - y53_61 - y56_57 - y22_64 - y14_60 - y37_62 - y15_34 - y26_43 - y38_45 - y26_61 - y49_63 - y18_57 - y19_22 - y27_35 - y11_27 - y63_65 - y0_36 - y11_36 - y8_49 - y30_49 - y0_45 - y11_45 - y4_6 - y4_15 - y52_64 - y33_60 - y23_37 - y2_63 - y22_50 - y45_52 - y37_48 - y22_59 - y45_61 - y3_55 - y15_20 - y15_38 - y38_40 - y26_47 - y18_43 - y26_65 - y0_13 - y0_22 - y11_40 - y41_59 - y52_59 - y4_19 - y10_53 - y44_55 - y25_51 - y4_28 - y44_64 - y45_47 - y22_54 - y45_56 - y22_63 - y0_8 - y18_56 - y48_57 - y19_30 - y6_60 - y11_26 - y4_5 - y25_37 - y4_14 - y33_50 - y41_63 - y2_44 - y2_62 - y3_27 - y3_36 - y37_47 - y14_54 - y37_56 - y36_60 - y59_62 - y26_37 - y11_12 - y19_25 - y21_44 - y0_21 - y40_57 - y11_30 - y33_36 - y4_9 - y10_43 - y41_58 - y25_41 - y2_48 - y3_13 - y44_63 - y25_59 - y3_22 - y22_35 - y22_53 - y3_49 - y55_59 - y47_64 - y18_37 - y21_39 - y0_16 - y40_52 - y25_27 - y10_38 - y10_47 - y33_49 - y2_43 - y10_56 - y2_52 - y25_54 - y24_58 - y3_35 - y3_44 - y14_44 - y16_63 - y36_41 - y7_14 - y47_50 - y17_46 - y28_46 - y18_23 - y36_59 - y9_51 - y6_36 - y6_45 - y40_47 - y21_43 - y29_56 - y21_52 - y10_33 - y33_35 - y10_51 - y2_47 - y3_12 - y32_48 - y43_48 - y3_21 - y13_53 - y3_30 - y13_62 - y35_62 - y36_45 - y55_58 - y28_59 - y58_60 - y6_31 - y50_65 - y61_65 - y6_40 - y40_42 - y6_49 - y29_51 - y40_51 - y21_47 - y2_15 - y2_33 - y24_39 - y14_16 - y51_65 - y24_48 - y3_25 - y16_44 - y43_61 - y24_57 - y16_53 - y36_40 - y28_36 - y6_8 - y5_52 - y28_63 - y21_24 - y6_35 - y29_37 - y21_42 - y10_14 - y2_19 - y12_51 - y31_64 - y12_60 - y13_25 - y2_37 - y4_56 - y23_60 - y4_65 - y1_41 - y13_43 - y24_43 - y16_39 - y32_56 - y1_50 - y32_65 - y16_48 - y43_65 - y1_59 - y13_61 - y5_38 - y17_40 - y17_49 - y28_49 - y58_59 - y21_28 - y27_62 - y6_39 - y8_58 - y11_63 - y39_45 - y39_54 - y31_50 - y39_63 - y12_46 - y54_61 - y4_51 - y12_64 - y23_64 - y1_36 - y13_38 - y24_38 - y43_51 - y16_43 - y5_15 - y1_63 - y46_53 - y38_58 - y28_35 - y9_31 - y5_42 - y27_57 - y50_59 - y30_53 - y42_64 - y20_27 - y12_32 - y23_32 - y2_9 - y20_45 - y12_41 - y20_63 - y12_59 - y13_24 - y4_64 - y16_29 - y34_65 - y13_42 - y43_46 - y24_51 - y16_47 - y46_57 - y49_53 - y17_30 - y9_26 - y6_11 - y27_43 - y8_39 - y30_39 - y19_48 - y30_48 - y27_61 - y11_44 - y50_63 - y30_57 - y42_59 - y12_18 - y23_27 - y2_4 - y20_49 - y12_54 - y13_19 - y4_50 - y1_26 - y13_28 - y1_35 - y24_37 - y16_42 - y38_39 - y5_14 - y9_12 - y38_48 - y15_64 - y26_64 - y8_34 - y19_34 - y0_30 - y8_43 - y0_39 - y11_39 - y8_52 - y0_48 - y12_13 - y30_61 - y20_26 - y0_57 - y12_22 - y31_44 - y12_40 - y23_40 - y23_49 - y13_14 - y45_46 - y4_54 - y45_55 - y16_28 - y22_62 - y1_39 - y37_60 - y56_64 - y5_9 - y38_43 - y46_56 - y9_16 - y49_52 - y15_59 - y49_61 - y19_20 - y8_29 - y19_38 - y30_38 - y11_34 - y8_47 - y42_49 - y0_43 - y0_52 - y12_17 - y52_53 - y20_30 - y12_26 - y23_26 - y12_35 - y1_7 - y1_16 - y13_18 - y22_57 - y3_62 - y5_13 - y7_41 - y26_63 - y7_59 - y19_24 - y11_20 - y30_33 - y27_46 - y11_29 - y30_51 - y41_48 - y60_61 - y12_21 - y12_30 - y23_30 - y4_26 - y10_60 - y2_65 - y22_43 - y22_52 - y34_54 - y3_48 - y7_18 - y59_65 - y38_42 - y15_49 - y7_45 - y40_60 - y19_37 - y0_42 - y12_16 - y4_12 - y25_44 - y44_57 - y2_51 - y1_6 - y2_60 - y25_62 - y14_61 - y7_22 - y18_22 - y59_60 - y0_1 - y18_49 - y8_14 - y48_50 - y40_46 - y0_19 - y30_32 - y0_28 - y6_62 - y21_60 - y33_43 - y41_56 - y52_56 - y10_50 - y33_52 - y41_65 - y52_65 - y10_59 - y33_61 - y44_61 - y2_55 - y3_20 - y25_57 - y2_64 - y22_42 - y3_38 - y37_40 - y14_47
 Subject to
C1: x0+x1-y0_1 <=1 
C2: x0+x2 <=1 
C3: x0+x6 <=1 
C4: x0+x8-y0_8 <=1 
C5: x0+x9-y0_9 <=1 
C6: x0+x10 <=1 
C7: x0+x13-y0_13 <=1 
C8: x0+x14-y0_14 <=1 
C9: x0+x16-y0_16 <=1 
C10: x0+x17 <=1 
C11: x0+x19-y0_19 <=1 
C12: x0+x21-y0_21 <=1 
C13: x0+x22-y0_22 <=1 
C14: x0+x24 <=1 
C15: x0+x28-y0_28 <=1 
C16: x0+x29 <=1 
C17: x0+x30-y0_30 <=1 
C18: x0+x31 <=1 
C19: x0+x32-y0_32 <=1 
C20: x0+x33 <=1 
C21: x0+x34 <=1 
C22: x0+x35 <=1 
C23: x0+x36-y0_36 <=1 
C24: x0+x38 <=1 
C25: x0+x39-y0_39 <=1 
C26: x0+x40 <=1 
C27: x0+x41-y0_41 <=1 
C28: x0+x42-y0_42 <=1 
C29: x0+x43-y0_43 <=1 
C30: x0+x44 <=1 
C31: x0+x45-y0_45 <=1 
C32: x0+x46-y0_46 <=1 
C33: x0+x48-y0_48 <=1 
C34: x0+x50 <=1 
C35: x0+x52-y0_52 <=1 
C36: x0+x53 <=1 
C37: x0+x54 <=1 
C38: x0+x55-y0_55 <=1 
C39: x0+x56-y0_56 <=1 
C40: x0+x57-y0_57 <=1 
C41: x0+x59-y0_59 <=1 
C42: x0+x60 <=1 
C43: x0+x64 <=1 
C44: x0+x65 <=1 
C45: x1+x2 <=1 
C46: x1+x5-y1_5 <=1 
C47: x1+x6-y1_6 <=1 
C48: x1+x7-y1_7 <=1 
C49: x1+x9 <=1 
C50: x1+x10 <=1 
C51: x1+x11 <=1 
C52: x1+x12 <=1 
C53: x1+x14 <=1 
C54: x1+x15-y1_15 <=1 
C55: x1+x16-y1_16 <=1 
C56: x1+x17 <=1 
C57: x1+x18 <=1 
C58: x1+x21 <=1 
C59: x1+x22 <=1 
C60: x1+x23-y1_23 <=1 
C61: x1+x26-y1_26 <=1 
C62: x1+x28-y1_28 <=1 
C63: x1+x29-y1_29 <=1 
C64: x1+x30 <=1 
C65: x1+x31 <=1 
C66: x1+x32 <=1 
C67: x1+x33-y1_33 <=1 
C68: x1+x34-y1_34 <=1 
C69: x1+x35-y1_35 <=1 
C70: x1+x36-y1_36 <=1 
C71: x1+x37-y1_37 <=1 
C72: x1+x38 <=1 
C73: x1+x39-y1_39 <=1 
C74: x1+x40 <=1 
C75: x1+x41-y1_41 <=1 
C76: x1+x42-y1_42 <=1 
C77: x1+x43 <=1 
C78: x1+x44 <=1 
C79: x1+x48 <=1 
C80: x1+x50-y1_50 <=1 
C81: x1+x51 <=1 
C82: x1+x52-y1_52 <=1 
C83: x1+x53 <=1 
C84: x1+x55 <=1 
C85: x1+x56 <=1 
C86: x1+x57-y1_57 <=1 
C87: x1+x58 <=1 
C88: x1+x59-y1_59 <=1 
C89: x1+x61-y1_61 <=1 
C90: x1+x63-y1_63 <=1 
C91: x1+x64 <=1 
C92: x1+x65-y1_65 <=1 
C93: x2+x4-y2_4 <=1 
C94: x2+x5 <=1 
C95: x2+x7-y2_7 <=1 
C96: x2+x9-y2_9 <=1 
C97: x2+x10 <=1 
C98: x2+x11 <=1 
C99: x2+x12 <=1 
C100: x2+x15-y2_15 <=1 
C101: x2+x16-y2_16 <=1 
C102: x2+x17 <=1 
C103: x2+x19-y2_19 <=1 
C104: x2+x22 <=1 
C105: x2+x24 <=1 
C106: x2+x26-y2_26 <=1 
C107: x2+x27-y2_27 <=1 
C108: x2+x28 <=1 
C109: x2+x29 <=1 
C110: x2+x30-y2_30 <=1 
C111: x2+x31 <=1 
C112: x2+x32-y2_32 <=1 
C113: x2+x33-y2_33 <=1 
C114: x2+x35 <=1 
C115: x2+x37-y2_37 <=1 
C116: x2+x43-y2_43 <=1 
C117: x2+x44-y2_44 <=1 
C118: x2+x46 <=1 
C119: x2+x47-y2_47 <=1 
C120: x2+x48-y2_48 <=1 
C121: x2+x49 <=1 
C122: x2+x51-y2_51 <=1 
C123: x2+x52-y2_52 <=1 
C124: x2+x53 <=1 
C125: x2+x55-y2_55 <=1 
C126: x2+x56 <=1 
C127: x2+x57 <=1 
C128: x2+x58 <=1 
C129: x2+x59-y2_59 <=1 
C130: x2+x60-y2_60 <=1 
C131: x2+x62-y2_62 <=1 
C132: x2+x63-y2_63 <=1 
C133: x2+x64-y2_64 <=1 
C134: x2+x65-y2_65 <=1 
C135: x3+x4-y3_4 <=1 
C136: x3+x6 <=1 
C137: x3+x9-y3_9 <=1 
C138: x3+x12-y3_12 <=1 
C139: x3+x13-y3_13 <=1 
C140: x3+x15 <=1 
C141: x3+x18-y3_18 <=1 
C142: x3+x19 <=1 
C143: x3+x20-y3_20 <=1 
C144: x3+x21-y3_21 <=1 
C145: x3+x22-y3_22 <=1 
C146: x3+x24-y3_24 <=1 
C147: x3+x25-y3_25 <=1 
C148: x3+x26 <=1 
C149: x3+x27-y3_27 <=1 
C150: x3+x28-y3_28 <=1 
C151: x3+x29 <=1 
C152: x3+x30-y3_30 <=1 
C153: x3+x31 <=1 
C154: x3+x32 <=1 
C155: x3+x33 <=1 
C156: x3+x35-y3_35 <=1 
C157: x3+x36-y3_36 <=1 
C158: x3+x38-y3_38 <=1 
C159: x3+x39 <=1 
C160: x3+x41 <=1 
C161: x3+x42 <=1 
C162: x3+x43 <=1 
C163: x3+x44-y3_44 <=1 
C164: x3+x45 <=1 
C165: x3+x47 <=1 
C166: x3+x48-y3_48 <=1 
C167: x3+x49-y3_49 <=1 
C168: x3+x50 <=1 
C169: x3+x51 <=1 
C170: x3+x52 <=1 
C171: x3+x55-y3_55 <=1 
C172: x3+x60 <=1 
C173: x3+x61 <=1 
C174: x3+x62-y3_62 <=1 
C175: x3+x63 <=1 
C176: x3+x65-y3_65 <=1 
C177: x4+x5-y4_5 <=1 
C178: x4+x6-y4_6 <=1 
C179: x4+x9-y4_9 <=1 
C180: x4+x10 <=1 
C181: x4+x11-y4_11 <=1 
C182: x4+x12-y4_12 <=1 
C183: x4+x14-y4_14 <=1 
C184: x4+x15-y4_15 <=1 
C185: x4+x16 <=1 
C186: x4+x17 <=1 
C187: x4+x18 <=1 
C188: x4+x19-y4_19 <=1 
C189: x4+x21 <=1 
C190: x4+x23 <=1 
C191: x4+x26-y4_26 <=1 
C192: x4+x28-y4_28 <=1 
C193: x4+x29 <=1 
C194: x4+x30 <=1 
C195: x4+x31 <=1 
C196: x4+x33 <=1 
C197: x4+x34-y4_34 <=1 
C198: x4+x35 <=1 
C199: x4+x36 <=1 
C200: x4+x37 <=1 
C201: x4+x39-y4_39 <=1 
C202: x4+x42 <=1 
C203: x4+x43-y4_43 <=1 
C204: x4+x44-y4_44 <=1 
C205: x4+x47-y4_47 <=1 
C206: x4+x48 <=1 
C207: x4+x49-y4_49 <=1 
C208: x4+x50-y4_50 <=1 
C209: x4+x51-y4_51 <=1 
C210: x4+x52 <=1 
C211: x4+x54-y4_54 <=1 
C212: x4+x56-y4_56 <=1 
C213: x4+x57 <=1 
C214: x4+x58 <=1 
C215: x4+x61-y4_61 <=1 
C216: x4+x62-y4_62 <=1 
C217: x4+x64-y4_64 <=1 
C218: x4+x65-y4_65 <=1 
C219: x5+x7-y5_7 <=1 
C220: x5+x9-y5_9 <=1 
C221: x5+x11 <=1 
C222: x5+x12 <=1 
C223: x5+x13-y5_13 <=1 
C224: x5+x14-y5_14 <=1 
C225: x5+x15-y5_15 <=1 
C226: x5+x16-y5_16 <=1 
C227: x5+x17 <=1 
C228: x5+x20 <=1 
C229: x5+x21 <=1 
C230: x5+x25-y5_25 <=1 
C231: x5+x26-y5_26 <=1 
C232: x5+x27-y5_27 <=1 
C233: x5+x28 <=1 
C234: x5+x29 <=1 
C235: x5+x30-y5_30 <=1 
C236: x5+x33 <=1 
C237: x5+x35-y5_35 <=1 
C238: x5+x36 <=1 
C239: x5+x37 <=1 
C240: x5+x38-y5_38 <=1 
C241: x5+x40 <=1 
C242: x5+x41-y5_41 <=1 
C243: x5+x42-y5_42 <=1 
C244: x5+x43 <=1 
C245: x5+x45-y5_45 <=1 
C246: x5+x46 <=1 
C247: x5+x50 <=1 
C248: x5+x52-y5_52 <=1 
C249: x5+x54 <=1 
C250: x5+x55-y5_55 <=1 
C251: x5+x58-y5_58 <=1 
C252: x5+x60 <=1 
C253: x5+x63-y5_63 <=1 
C254: x5+x64-y5_64 <=1 
C255: x5+x65 <=1 
C256: x6+x8-y6_8 <=1 
C257: x6+x10-y6_10 <=1 
C258: x6+x11-y6_11 <=1 
C259: x6+x16 <=1 
C260: x6+x18-y6_18 <=1 
C261: x6+x19 <=1 
C262: x6+x20 <=1 
C263: x6+x21 <=1 
C264: x6+x23-y6_23 <=1 
C265: x6+x25 <=1 
C266: x6+x26 <=1 
C267: x6+x31-y6_31 <=1 
C268: x6+x33-y6_33 <=1 
C269: x6+x35-y6_35 <=1 
C270: x6+x36-y6_36 <=1 
C271: x6+x37-y6_37 <=1 
C272: x6+x38 <=1 
C273: x6+x39-y6_39 <=1 
C274: x6+x40-y6_40 <=1 
C275: x6+x42 <=1 
C276: x6+x44 <=1 
C277: x6+x45-y6_45 <=1 
C278: x6+x46-y6_46 <=1 
C279: x6+x47 <=1 
C280: x6+x48-y6_48 <=1 
C281: x6+x49-y6_49 <=1 
C282: x6+x50 <=1 
C283: x6+x52-y6_52 <=1 
C284: x6+x54 <=1 
C285: x6+x56-y6_56 <=1 
C286: x6+x58 <=1 
C287: x6+x59 <=1 
C288: x6+x60-y6_60 <=1 
C289: x6+x61 <=1 
C290: x6+x62-y6_62 <=1 
C291: x6+x63 <=1 
C292: x6+x64 <=1 
C293: x6+x65 <=1 
C294: x7+x8 <=1 
C295: x7+x9 <=1 
C296: x7+x11 <=1 
C297: x7+x12-y7_12 <=1 
C298: x7+x14-y7_14 <=1 
C299: x7+x15 <=1 
C300: x7+x17 <=1 
C301: x7+x18-y7_18 <=1 
C302: x7+x20 <=1 
C303: x7+x21-y7_21 <=1 
C304: x7+x22-y7_22 <=1 
C305: x7+x24 <=1 
C306: x7+x25 <=1 
C307: x7+x26-y7_26 <=1 
C308: x7+x28 <=1 
C309: x7+x29 <=1 
C310: x7+x30 <=1 
C311: x7+x32 <=1 
C312: x7+x33 <=1 
C313: x7+x35 <=1 
C314: x7+x36 <=1 
C315: x7+x37 <=1 
C316: x7+x39 <=1 
C317: x7+x41-y7_41 <=1 
C318: x7+x43 <=1 
C319: x7+x44 <=1 
C320: x7+x45-y7_45 <=1 
C321: x7+x47 <=1 
C322: x7+x51 <=1 
C323: x7+x56 <=1 
C324: x7+x57 <=1 
C325: x7+x58-y7_58 <=1 
C326: x7+x59-y7_59 <=1 
C327: x7+x60 <=1 
C328: x7+x61 <=1 
C329: x7+x62-y7_62 <=1 
C330: x7+x63-y7_63 <=1 
C331: x7+x64 <=1 
C332: x7+x65 <=1 
C333: x8+x9 <=1 
C334: x8+x12 <=1 
C335: x8+x14-y8_14 <=1 
C336: x8+x15 <=1 
C337: x8+x20 <=1 
C338: x8+x21 <=1 
C339: x8+x22 <=1 
C340: x8+x24 <=1 
C341: x8+x27 <=1 
C342: x8+x29-y8_29 <=1 
C343: x8+x32 <=1 
C344: x8+x33 <=1 
C345: x8+x34-y8_34 <=1 
C346: x8+x35 <=1 
C347: x8+x36 <=1 
C348: x8+x38 <=1 
C349: x8+x39-y8_39 <=1 
C350: x8+x43-y8_43 <=1 
C351: x8+x47-y8_47 <=1 
C352: x8+x49-y8_49 <=1 
C353: x8+x52-y8_52 <=1 
C354: x8+x54-y8_54 <=1 
C355: x8+x57 <=1 
C356: x8+x58-y8_58 <=1 
C357: x8+x60-y8_60 <=1 
C358: x8+x61 <=1 
C359: x8+x62 <=1 
C360: x8+x63 <=1 
C361: x8+x64 <=1 
C362: x9+x10-y9_10 <=1 
C363: x9+x11-y9_11 <=1 
C364: x9+x12-y9_12 <=1 
C365: x9+x15-y9_15 <=1 
C366: x9+x16-y9_16 <=1 
C367: x9+x19 <=1 
C368: x9+x21 <=1 
C369: x9+x22 <=1 
C370: x9+x24-y9_24 <=1 
C371: x9+x26-y9_26 <=1 
C372: x9+x29-y9_29 <=1 
C373: x9+x30-y9_30 <=1 
C374: x9+x31-y9_31 <=1 
C375: x9+x33-y9_33 <=1 
C376: x9+x37 <=1 
C377: x9+x39 <=1 
C378: x9+x40 <=1 
C379: x9+x42 <=1 
C380: x9+x44-y9_44 <=1 
C381: x9+x48-y9_48 <=1 
C382: x9+x50 <=1 
C383: x9+x51-y9_51 <=1 
C384: x9+x52 <=1 
C385: x9+x53 <=1 
C386: x9+x55 <=1 
C387: x9+x56 <=1 
C388: x9+x57-y9_57 <=1 
C389: x9+x60 <=1 
C390: x9+x61 <=1 
C391: x9+x63-y9_63 <=1 
C392: x10+x13 <=1 
C393: x10+x14-y10_14 <=1 
C394: x10+x16-y10_16 <=1 
C395: x10+x17 <=1 
C396: x10+x18 <=1 
C397: x10+x19 <=1 
C398: x10+x20 <=1 
C399: x10+x22 <=1 
C400: x10+x23 <=1 
C401: x10+x27 <=1 
C402: x10+x28 <=1 
C403: x10+x29 <=1 
C404: x10+x30 <=1 
C405: x10+x31 <=1 
C406: x10+x32 <=1 
C407: x10+x33-y10_33 <=1 
C408: x10+x34 <=1 
C409: x10+x35 <=1 
C410: x10+x38-y10_38 <=1 
C411: x10+x39-y10_39 <=1 
C412: x10+x40 <=1 
C413: x10+x43-y10_43 <=1 
C414: x10+x44 <=1 
C415: x10+x45 <=1 
C416: x10+x46 <=1 
C417: x10+x47-y10_47 <=1 
C418: x10+x50-y10_50 <=1 
C419: x10+x51-y10_51 <=1 
C420: x10+x53-y10_53 <=1 
C421: x10+x55 <=1 
C422: x10+x56-y10_56 <=1 
C423: x10+x59-y10_59 <=1 
C424: x10+x60-y10_60 <=1 
C425: x10+x62 <=1 
C426: x10+x63 <=1 
C427: x10+x64 <=1 
C428: x11+x12-y11_12 <=1 
C429: x11+x14-y11_14 <=1 
C430: x11+x16 <=1 
C431: x11+x19 <=1 
C432: x11+x20-y11_20 <=1 
C433: x11+x23 <=1 
C434: x11+x25 <=1 
C435: x11+x26-y11_26 <=1 
C436: x11+x27-y11_27 <=1 
C437: x11+x29-y11_29 <=1 
C438: x11+x30-y11_30 <=1 
C439: x11+x32-y11_32 <=1 
C440: x11+x34-y11_34 <=1 
C441: x11+x36-y11_36 <=1 
C442: x11+x37-y11_37 <=1 
C443: x11+x39-y11_39 <=1 
C444: x11+x40-y11_40 <=1 
C445: x11+x44-y11_44 <=1 
C446: x11+x45-y11_45 <=1 
C447: x11+x46 <=1 
C448: x11+x48 <=1 
C449: x11+x49 <=1 
C450: x11+x50-y11_50 <=1 
C451: x11+x51 <=1 
C452: x11+x52 <=1 
C453: x11+x55-y11_55 <=1 
C454: x11+x56 <=1 
C455: x11+x58 <=1 
C456: x11+x59 <=1 
C457: x11+x60-y11_60 <=1 
C458: x11+x62 <=1 
C459: x11+x63-y11_63 <=1 
C460: x12+x13-y12_13 <=1 
C461: x12+x15 <=1 
C462: x12+x16-y12_16 <=1 
C463: x12+x17-y12_17 <=1 
C464: x12+x18-y12_18 <=1 
C465: x12+x21-y12_21 <=1 
C466: x12+x22-y12_22 <=1 
C467: x12+x25-y12_25 <=1 
C468: x12+x26-y12_26 <=1 
C469: x12+x30-y12_30 <=1 
C470: x12+x32-y12_32 <=1 
C471: x12+x34-y12_34 <=1 
C472: x12+x35-y12_35 <=1 
C473: x12+x39-y12_39 <=1 
C474: x12+x40-y12_40 <=1 
C475: x12+x41-y12_41 <=1 
C476: x12+x43-y12_43 <=1 
C477: x12+x44-y12_44 <=1 
C478: x12+x46-y12_46 <=1 
C479: x12+x48-y12_48 <=1 
C480: x12+x50 <=1 
C481: x12+x51-y12_51 <=1 
C482: x12+x52 <=1 
C483: x12+x53 <=1 
C484: x12+x54-y12_54 <=1 
C485: x12+x58-y12_58 <=1 
C486: x12+x59-y12_59 <=1 
C487: x12+x60-y12_60 <=1 
C488: x12+x61 <=1 
C489: x12+x62-y12_62 <=1 
C490: x12+x63 <=1 
C491: x12+x64-y12_64 <=1 
C492: x13+x14-y13_14 <=1 
C493: x13+x15 <=1 
C494: x13+x16-y13_16 <=1 
C495: x13+x17 <=1 
C496: x13+x18-y13_18 <=1 
C497: x13+x19-y13_19 <=1 
C498: x13+x23 <=1 
C499: x13+x24-y13_24 <=1 
C500: x13+x25-y13_25 <=1 
C501: x13+x26 <=1 
C502: x13+x27-y13_27 <=1 
C503: x13+x28-y13_28 <=1 
C504: x13+x32-y13_32 <=1 
C505: x13+x35 <=1 
C506: x13+x37 <=1 
C507: x13+x38-y13_38 <=1 
C508: x13+x41-y13_41 <=1 
C509: x13+x42-y13_42 <=1 
C510: x13+x43-y13_43 <=1 
C511: x13+x44-y13_44 <=1 
C512: x13+x46-y13_46 <=1 
C513: x13+x49-y13_49 <=1 
C514: x13+x50-y13_50 <=1 
C515: x13+x52 <=1 
C516: x13+x53-y13_53 <=1 
C517: x13+x57 <=1 
C518: x13+x59-y13_59 <=1 
C519: x13+x60-y13_60 <=1 
C520: x13+x61-y13_61 <=1 
C521: x13+x62-y13_62 <=1 
C522: x13+x65 <=1 
C523: x14+x16-y14_16 <=1 
C524: x14+x17 <=1 
C525: x14+x20 <=1 
C526: x14+x23 <=1 
C527: x14+x24-y14_24 <=1 
C528: x14+x25 <=1 
C529: x14+x32 <=1 
C530: x14+x33 <=1 
C531: x14+x34 <=1 
C532: x14+x35 <=1 
C533: x14+x36 <=1 
C534: x14+x37-y14_37 <=1 
C535: x14+x38 <=1 
C536: x14+x39 <=1 
C537: x14+x43 <=1 
C538: x14+x44-y14_44 <=1 
C539: x14+x45 <=1 
C540: x14+x46 <=1 
C541: x14+x47-y14_47 <=1 
C542: x14+x48 <=1 
C543: x14+x49 <=1 
C544: x14+x51-y14_51 <=1 
C545: x14+x52 <=1 
C546: x14+x54-y14_54 <=1 
C547: x14+x56 <=1 
C548: x14+x60-y14_60 <=1 
C549: x14+x61-y14_61 <=1 
C550: x14+x63 <=1 
C551: x14+x64 <=1 
C552: x14+x65 <=1 
C553: x15+x17 <=1 
C554: x15+x19 <=1 
C555: x15+x20-y15_20 <=1 
C556: x15+x21-y15_21 <=1 
C557: x15+x26 <=1 
C558: x15+x29 <=1 
C559: x15+x32 <=1 
C560: x15+x33 <=1 
C561: x15+x34-y15_34 <=1 
C562: x15+x38-y15_38 <=1 
C563: x15+x41 <=1 
C564: x15+x42 <=1 
C565: x15+x43 <=1 
C566: x15+x47 <=1 
C567: x15+x49-y15_49 <=1 
C568: x15+x50 <=1 
C569: x15+x53 <=1 
C570: x15+x56 <=1 
C571: x15+x57 <=1 
C572: x15+x59-y15_59 <=1 
C573: x15+x62 <=1 
C574: x15+x64-y15_64 <=1 
C575: x16+x17-y16_17 <=1 
C576: x16+x18-y16_18 <=1 
C577: x16+x24 <=1 
C578: x16+x27-y16_27 <=1 
C579: x16+x28-y16_28 <=1 
C580: x16+x29-y16_29 <=1 
C581: x16+x30 <=1 
C582: x16+x31-y16_31 <=1 
C583: x16+x33 <=1 
C584: x16+x34 <=1 
C585: x16+x35 <=1 
C586: x16+x36-y16_36 <=1 
C587: x16+x37 <=1 
C588: x16+x39-y16_39 <=1 
C589: x16+x42-y16_42 <=1 
C590: x16+x43-y16_43 <=1 
C591: x16+x44-y16_44 <=1 
C592: x16+x46-y16_46 <=1 
C593: x16+x47-y16_47 <=1 
C594: x16+x48-y16_48 <=1 
C595: x16+x50 <=1 
C596: x16+x51 <=1 
C597: x16+x52 <=1 
C598: x16+x53-y16_53 <=1 
C599: x16+x55-y16_55 <=1 
C600: x16+x57 <=1 
C601: x16+x60 <=1 
C602: x16+x61 <=1 
C603: x16+x63-y16_63 <=1 
C604: x16+x64-y16_64 <=1 
C605: x16+x65-y16_65 <=1 
C606: x17+x19-y17_19 <=1 
C607: x17+x20-y17_20 <=1 
C608: x17+x21 <=1 
C609: x17+x24 <=1 
C610: x17+x25-y17_25 <=1 
C611: x17+x29 <=1 
C612: x17+x30-y17_30 <=1 
C613: x17+x34-y17_34 <=1 
C614: x17+x37 <=1 
C615: x17+x38 <=1 
C616: x17+x40-y17_40 <=1 
C617: x17+x44 <=1 
C618: x17+x46-y17_46 <=1 
C619: x17+x47 <=1 
C620: x17+x48-y17_48 <=1 
C621: x17+x49-y17_49 <=1 
C622: x17+x52-y17_52 <=1 
C623: x17+x53 <=1 
C624: x17+x54 <=1 
C625: x17+x57-y17_57 <=1 
C626: x17+x58 <=1 
C627: x17+x59 <=1 
C628: x18+x20 <=1 
C629: x18+x22-y18_22 <=1 
C630: x18+x23-y18_23 <=1 
C631: x18+x24 <=1 
C632: x18+x25 <=1 
C633: x18+x26 <=1 
C634: x18+x28 <=1 
C635: x18+x30-y18_30 <=1 
C636: x18+x33 <=1 
C637: x18+x34 <=1 
C638: x18+x35-y18_35 <=1 
C639: x18+x36 <=1 
C640: x18+x37-y18_37 <=1 
C641: x18+x38 <=1 
C642: x18+x39 <=1 
C643: x18+x41 <=1 
C644: x18+x43-y18_43 <=1 
C645: x18+x45 <=1 
C646: x18+x46 <=1 
C647: x18+x49-y18_49 <=1 
C648: x18+x52 <=1 
C649: x18+x53-y18_53 <=1 
C650: x18+x54 <=1 
C651: x18+x56-y18_56 <=1 
C652: x18+x57-y18_57 <=1 
C653: x18+x59 <=1 
C654: x18+x61 <=1 
C655: x18+x62-y18_62 <=1 
C656: x18+x65 <=1 
C657: x19+x20-y19_20 <=1 
C658: x19+x22-y19_22 <=1 
C659: x19+x24-y19_24 <=1 
C660: x19+x25-y19_25 <=1 
C661: x19+x26 <=1 
C662: x19+x28 <=1 
C663: x19+x30-y19_30 <=1 
C664: x19+x31 <=1 
C665: x19+x32 <=1 
C666: x19+x34-y19_34 <=1 
C667: x19+x36 <=1 
C668: x19+x37-y19_37 <=1 
C669: x19+x38-y19_38 <=1 
C670: x19+x39 <=1 
C671: x19+x44 <=1 
C672: x19+x46-y19_46 <=1 
C673: x19+x48-y19_48 <=1 
C674: x19+x51 <=1 
C675: x19+x52 <=1 
C676: x19+x53 <=1 
C677: x19+x54 <=1 
C678: x19+x57 <=1 
C679: x19+x58 <=1 
C680: x19+x60-y19_60 <=1 
C681: x19+x62 <=1 
C682: x19+x64-y19_64 <=1 
C683: x19+x65-y19_65 <=1 
C684: x20+x24 <=1 
C685: x20+x25 <=1 
C686: x20+x26-y20_26 <=1 
C687: x20+x27-y20_27 <=1 
C688: x20+x28 <=1 
C689: x20+x29 <=1 
C690: x20+x30-y20_30 <=1 
C691: x20+x32 <=1 
C692: x20+x33-y20_33 <=1 
C693: x20+x34-y20_34 <=1 
C694: x20+x38 <=1 
C695: x20+x39-y20_39 <=1 
C696: x20+x41 <=1 
C697: x20+x43-y20_43 <=1 
C698: x20+x44 <=1 
C699: x20+x45-y20_45 <=1 
C700: x20+x46 <=1 
C701: x20+x47-y20_47 <=1 
C702: x20+x49-y20_49 <=1 
C703: x20+x51-y20_51 <=1 
C704: x20+x53-y20_53 <=1 
C705: x20+x54 <=1 
C706: x20+x56 <=1 
C707: x20+x57-y20_57 <=1 
C708: x20+x58 <=1 
C709: x20+x60 <=1 
C710: x20+x61 <=1 
C711: x20+x62 <=1 
C712: x20+x63-y20_63 <=1 
C713: x21+x22 <=1 
C714: x21+x23 <=1 
C715: x21+x24-y21_24 <=1 
C716: x21+x26 <=1 
C717: x21+x27 <=1 
C718: x21+x28-y21_28 <=1 
C719: x21+x29 <=1 
C720: x21+x30 <=1 
C721: x21+x31-y21_31 <=1 
C722: x21+x32-y21_32 <=1 
C723: x21+x33 <=1 
C724: x21+x34 <=1 
C725: x21+x35-y21_35 <=1 
C726: x21+x36-y21_36 <=1 
C727: x21+x37 <=1 
C728: x21+x39-y21_39 <=1 
C729: x21+x40 <=1 
C730: x21+x41-y21_41 <=1 
C731: x21+x42-y21_42 <=1 
C732: x21+x43-y21_43 <=1 
C733: x21+x44-y21_44 <=1 
C734: x21+x45 <=1 
C735: x21+x47-y21_47 <=1 
C736: x21+x50 <=1 
C737: x21+x52-y21_52 <=1 
C738: x21+x53 <=1 
C739: x21+x55-y21_55 <=1 
C740: x21+x56 <=1 
C741: x21+x60-y21_60 <=1 
C742: x21+x61 <=1 
C743: x21+x65 <=1 
C744: x22+x25 <=1 
C745: x22+x26 <=1 
C746: x22+x27 <=1 
C747: x22+x29 <=1 
C748: x22+x32 <=1 
C749: x22+x34 <=1 
C750: x22+x35-y22_35 <=1 
C751: x22+x36 <=1 
C752: x22+x37-y22_37 <=1 
C753: x22+x38 <=1 
C754: x22+x39 <=1 
C755: x22+x42-y22_42 <=1 
C756: x22+x43-y22_43 <=1 
C757: x22+x44 <=1 
C758: x22+x47 <=1 
C759: x22+x48 <=1 
C760: x22+x50-y22_50 <=1 
C761: x22+x52-y22_52 <=1 
C762: x22+x53-y22_53 <=1 
C763: x22+x54-y22_54 <=1 
C764: x22+x55 <=1 
C765: x22+x56 <=1 
C766: x22+x57-y22_57 <=1 
C767: x22+x58 <=1 
C768: x22+x59-y22_59 <=1 
C769: x22+x60-y22_60 <=1 
C770: x22+x61 <=1 
C771: x22+x62-y22_62 <=1 
C772: x22+x63-y22_63 <=1 
C773: x22+x64-y22_64 <=1 
C774: x23+x26-y23_26 <=1 
C775: x23+x27-y23_27 <=1 
C776: x23+x28 <=1 
C777: x23+x30-y23_30 <=1 
C778: x23+x32-y23_32 <=1 
C779: x23+x33 <=1 
C780: x23+x34 <=1 
C781: x23+x36 <=1 
C782: x23+x37-y23_37 <=1 
C783: x23+x39-y23_39 <=1 
C784: x23+x40-y23_40 <=1 
C785: x23+x42 <=1 
C786: x23+x44 <=1 
C787: x23+x45 <=1 
C788: x23+x46 <=1 
C789: x23+x47-y23_47 <=1 
C790: x23+x49-y23_49 <=1 
C791: x23+x51 <=1 
C792: x23+x53-y23_53 <=1 
C793: x23+x54 <=1 
C794: x23+x55 <=1 
C795: x23+x58 <=1 
C796: x23+x59 <=1 
C797: x23+x60-y23_60 <=1 
C798: x23+x61-y23_61 <=1 
C799: x23+x62-y23_62 <=1 
C800: x23+x63 <=1 
C801: x23+x64-y23_64 <=1 
C802: x23+x65 <=1 
C803: x24+x25-y24_25 <=1 
C804: x24+x26 <=1 
C805: x24+x27-y24_27 <=1 
C806: x24+x28 <=1 
C807: x24+x29 <=1 
C808: x24+x30 <=1 
C809: x24+x32-y24_32 <=1 
C810: x24+x33 <=1 
C811: x24+x34 <=1 
C812: x24+x35-y24_35 <=1 
C813: x24+x36 <=1 
C814: x24+x37-y24_37 <=1 
C815: x24+x38-y24_38 <=1 
C816: x24+x39-y24_39 <=1 
C817: x24+x42 <=1 
C818: x24+x43-y24_43 <=1 
C819: x24+x44-y24_44 <=1 
C820: x24+x45-y24_45 <=1 
C821: x24+x46 <=1 
C822: x24+x48-y24_48 <=1 
C823: x24+x51-y24_51 <=1 
C824: x24+x53 <=1 
C825: x24+x54-y24_54 <=1 
C826: x24+x55 <=1 
C827: x24+x56 <=1 
C828: x24+x57-y24_57 <=1 
C829: x24+x58-y24_58 <=1 
C830: x24+x59 <=1 
C831: x24+x60 <=1 
C832: x24+x62 <=1 
C833: x24+x63-y24_63 <=1 
C834: x24+x64-y24_64 <=1 
C835: x24+x65-y24_65 <=1 
C836: x25+x26 <=1 
C837: x25+x27-y25_27 <=1 
C838: x25+x28 <=1 
C839: x25+x30 <=1 
C840: x25+x31 <=1 
C841: x25+x32 <=1 
C842: x25+x33-y25_33 <=1 
C843: x25+x37-y25_37 <=1 
C844: x25+x41-y25_41 <=1 
C845: x25+x44-y25_44 <=1 
C846: x25+x45 <=1 
C847: x25+x47 <=1 
C848: x25+x48 <=1 
C849: x25+x49 <=1 
C850: x25+x51-y25_51 <=1 
C851: x25+x54-y25_54 <=1 
C852: x25+x56 <=1 
C853: x25+x57-y25_57 <=1 
C854: x25+x59-y25_59 <=1 
C855: x25+x60 <=1 
C856: x25+x61 <=1 
C857: x25+x62-y25_62 <=1 
C858: x26+x28 <=1 
C859: x26+x31 <=1 
C860: x26+x32 <=1 
C861: x26+x35 <=1 
C862: x26+x37-y26_37 <=1 
C863: x26+x40 <=1 
C864: x26+x42 <=1 
C865: x26+x43-y26_43 <=1 
C866: x26+x44 <=1 
C867: x26+x45 <=1 
C868: x26+x47-y26_47 <=1 
C869: x26+x48 <=1 
C870: x26+x51 <=1 
C871: x26+x53-y26_53 <=1 
C872: x26+x54 <=1 
C873: x26+x58 <=1 
C874: x26+x60 <=1 
C875: x26+x61-y26_61 <=1 
C876: x26+x63-y26_63 <=1 
C877: x26+x64-y26_64 <=1 
C878: x26+x65-y26_65 <=1 
C879: x27+x32 <=1 
C880: x27+x35-y27_35 <=1 
C881: x27+x41-y27_41 <=1 
C882: x27+x43-y27_43 <=1 
C883: x27+x44 <=1 
C884: x27+x46-y27_46 <=1 
C885: x27+x49-y27_49 <=1 
C886: x27+x50 <=1 
C887: x27+x51 <=1 
C888: x27+x55-y27_55 <=1 
C889: x27+x56 <=1 
C890: x27+x57-y27_57 <=1 
C891: x27+x59-y27_59 <=1 
C892: x27+x61-y27_61 <=1 
C893: x27+x62-y27_62 <=1 
C894: x28+x29 <=1 
C895: x28+x31 <=1 
C896: x28+x32 <=1 
C897: x28+x34 <=1 
C898: x28+x35-y28_35 <=1 
C899: x28+x36-y28_36 <=1 
C900: x28+x37-y28_37 <=1 
C901: x28+x39-y28_39 <=1 
C902: x28+x40 <=1 
C903: x28+x41 <=1 
C904: x28+x42 <=1 
C905: x28+x43 <=1 
C906: x28+x44 <=1 
C907: x28+x45 <=1 
C908: x28+x46-y28_46 <=1 
C909: x28+x49-y28_49 <=1 
C910: x28+x51 <=1 
C911: x28+x52-y28_52 <=1 
C912: x28+x53 <=1 
C913: x28+x54 <=1 
C914: x28+x55 <=1 
C915: x28+x56-y28_56 <=1 
C916: x28+x57 <=1 
C917: x28+x58-y28_58 <=1 
C918: x28+x59-y28_59 <=1 
C919: x28+x60 <=1 
C920: x28+x61 <=1 
C921: x28+x62 <=1 
C922: x28+x63-y28_63 <=1 
C923: x29+x31-y29_31 <=1 
C924: x29+x32-y29_32 <=1 
C925: x29+x36-y29_36 <=1 
C926: x29+x37-y29_37 <=1 
C927: x29+x38 <=1 
C928: x29+x39 <=1 
C929: x29+x40-y29_40 <=1 
C930: x29+x42 <=1 
C931: x29+x43 <=1 
C932: x29+x44-y29_44 <=1 
C933: x29+x45-y29_45 <=1 
C934: x29+x49 <=1 
C935: x29+x51-y29_51 <=1 
C936: x29+x54 <=1 
C937: x29+x56-y29_56 <=1 
C938: x29+x57 <=1 
C939: x29+x59-y29_59 <=1 
C940: x29+x61 <=1 
C941: x30+x31 <=1 
C942: x30+x32-y30_32 <=1 
C943: x30+x33-y30_33 <=1 
C944: x30+x35 <=1 
C945: x30+x36 <=1 
C946: x30+x37 <=1 
C947: x30+x38-y30_38 <=1 
C948: x30+x39-y30_39 <=1 
C949: x30+x40 <=1 
C950: x30+x41 <=1 
C951: x30+x42 <=1 
C952: x30+x43 <=1 
C953: x30+x44 <=1 
C954: x30+x45 <=1 
C955: x30+x46 <=1 
C956: x30+x47 <=1 
C957: x30+x48-y30_48 <=1 
C958: x30+x49-y30_49 <=1 
C959: x30+x51-y30_51 <=1 
C960: x30+x53-y30_53 <=1 
C961: x30+x54 <=1 
C962: x30+x55 <=1 
C963: x30+x57-y30_57 <=1 
C964: x30+x61-y30_61 <=1 
C965: x30+x63-y30_63 <=1 
C966: x30+x64 <=1 
C967: x31+x32 <=1 
C968: x31+x33-y31_33 <=1 
C969: x31+x34 <=1 
C970: x31+x36 <=1 
C971: x31+x37-y31_37 <=1 
C972: x31+x38 <=1 
C973: x31+x39 <=1 
C974: x31+x42 <=1 
C975: x31+x44-y31_44 <=1 
C976: x31+x45 <=1 
C977: x31+x47-y31_47 <=1 
C978: x31+x49 <=1 
C979: x31+x50-y31_50 <=1 
C980: x31+x51-y31_51 <=1 
C981: x31+x53 <=1 
C982: x31+x55 <=1 
C983: x31+x56-y31_56 <=1 
C984: x31+x57-y31_57 <=1 
C985: x31+x58 <=1 
C986: x31+x60 <=1 
C987: x31+x62 <=1 
C988: x31+x64-y31_64 <=1 
C989: x31+x65 <=1 
C990: x32+x36 <=1 
C991: x32+x39 <=1 
C992: x32+x40-y32_40 <=1 
C993: x32+x41 <=1 
C994: x32+x42 <=1 
C995: x32+x44-y32_44 <=1 
C996: x32+x45-y32_45 <=1 
C997: x32+x46 <=1 
C998: x32+x48-y32_48 <=1 
C999: x32+x49-y32_49 <=1 
C1000: x32+x50 <=1 
C1001: x32+x51 <=1 
C1002: x32+x54 <=1 
C1003: x32+x56-y32_56 <=1 
C1004: x32+x57 <=1 
C1005: x32+x58 <=1 
C1006: x32+x59 <=1 
C1007: x32+x61 <=1 
C1008: x32+x62 <=1 
C1009: x32+x64-y32_64 <=1 
C1010: x32+x65-y32_65 <=1 
C1011: x33+x35-y33_35 <=1 
C1012: x33+x36-y33_36 <=1 
C1013: x33+x37 <=1 
C1014: x33+x38-y33_38 <=1 
C1015: x33+x39 <=1 
C1016: x33+x40 <=1 
C1017: x33+x42 <=1 
C1018: x33+x43-y33_43 <=1 
C1019: x33+x44 <=1 
C1020: x33+x45 <=1 
C1021: x33+x47 <=1 
C1022: x33+x49-y33_49 <=1 
C1023: x33+x50-y33_50 <=1 
C1024: x33+x51 <=1 
C1025: x33+x52-y33_52 <=1 
C1026: x33+x53 <=1 
C1027: x33+x56 <=1 
C1028: x33+x57 <=1 
C1029: x33+x59 <=1 
C1030: x33+x60-y33_60 <=1 
C1031: x33+x61-y33_61 <=1 
C1032: x33+x64 <=1 
C1033: x34+x39 <=1 
C1034: x34+x40 <=1 
C1035: x34+x44 <=1 
C1036: x34+x48-y34_48 <=1 
C1037: x34+x51 <=1 
C1038: x34+x52 <=1 
C1039: x34+x53 <=1 
C1040: x34+x54-y34_54 <=1 
C1041: x34+x55 <=1 
C1042: x34+x57 <=1 
C1043: x34+x59 <=1 
C1044: x34+x61 <=1 
C1045: x34+x62 <=1 
C1046: x34+x65-y34_65 <=1 
C1047: x35+x39 <=1 
C1048: x35+x40-y35_40 <=1 
C1049: x35+x41-y35_41 <=1 
C1050: x35+x45-y35_45 <=1 
C1051: x35+x46-y35_46 <=1 
C1052: x35+x47 <=1 
C1053: x35+x49 <=1 
C1054: x35+x53 <=1 
C1055: x35+x54 <=1 
C1056: x35+x55-y35_55 <=1 
C1057: x35+x57 <=1 
C1058: x35+x59 <=1 
C1059: x35+x60-y35_60 <=1 
C1060: x35+x61 <=1 
C1061: x35+x62-y35_62 <=1 
C1062: x35+x65 <=1 
C1063: x36+x37 <=1 
C1064: x36+x39 <=1 
C1065: x36+x40-y36_40 <=1 
C1066: x36+x41-y36_41 <=1 
C1067: x36+x42 <=1 
C1068: x36+x43-y36_43 <=1 
C1069: x36+x45-y36_45 <=1 
C1070: x36+x47-y36_47 <=1 
C1071: x36+x49 <=1 
C1072: x36+x52 <=1 
C1073: x36+x53-y36_53 <=1 
C1074: x36+x55 <=1 
C1075: x36+x56 <=1 
C1076: x36+x57 <=1 
C1077: x36+x59-y36_59 <=1 
C1078: x36+x60-y36_60 <=1 
C1079: x36+x62-y36_62 <=1 
C1080: x36+x63 <=1 
C1081: x37+x38 <=1 
C1082: x37+x40-y37_40 <=1 
C1083: x37+x42 <=1 
C1084: x37+x43 <=1 
C1085: x37+x44-y37_44 <=1 
C1086: x37+x47-y37_47 <=1 
C1087: x37+x48-y37_48 <=1 
C1088: x37+x50 <=1 
C1089: x37+x51 <=1 
C1090: x37+x52 <=1 
C1091: x37+x56-y37_56 <=1 
C1092: x37+x60-y37_60 <=1 
C1093: x37+x61 <=1 
C1094: x37+x62-y37_62 <=1 
C1095: x37+x63-y37_63 <=1 
C1096: x37+x65 <=1 
C1097: x38+x39-y38_39 <=1 
C1098: x38+x40-y38_40 <=1 
C1099: x38+x42-y38_42 <=1 
C1100: x38+x43-y38_43 <=1 
C1101: x38+x45-y38_45 <=1 
C1102: x38+x46-y38_46 <=1 
C1103: x38+x48-y38_48 <=1 
C1104: x38+x50 <=1 
C1105: x38+x54 <=1 
C1106: x38+x55 <=1 
C1107: x38+x57 <=1 
C1108: x38+x58-y38_58 <=1 
C1109: x38+x60-y38_60 <=1 
C1110: x38+x64 <=1 
C1111: x38+x65 <=1 
C1112: x39+x42-y39_42 <=1 
C1113: x39+x43-y39_43 <=1 
C1114: x39+x44 <=1 
C1115: x39+x45-y39_45 <=1 
C1116: x39+x46-y39_46 <=1 
C1117: x39+x47-y39_47 <=1 
C1118: x39+x48-y39_48 <=1 
C1119: x39+x49 <=1 
C1120: x39+x51-y39_51 <=1 
C1121: x39+x54-y39_54 <=1 
C1122: x39+x56-y39_56 <=1 
C1123: x39+x57 <=1 
C1124: x39+x58 <=1 
C1125: x39+x59 <=1 
C1126: x39+x61 <=1 
C1127: x39+x63-y39_63 <=1 
C1128: x39+x64 <=1 
C1129: x40+x41-y40_41 <=1 
C1130: x40+x42-y40_42 <=1 
C1131: x40+x44 <=1 
C1132: x40+x46-y40_46 <=1 
C1133: x40+x47-y40_47 <=1 
C1134: x40+x48 <=1 
C1135: x40+x50-y40_50 <=1 
C1136: x40+x51-y40_51 <=1 
C1137: x40+x52-y40_52 <=1 
C1138: x40+x54 <=1 
C1139: x40+x55 <=1 
C1140: x40+x57-y40_57 <=1 
C1141: x40+x58-y40_58 <=1 
C1142: x40+x59-y40_59 <=1 
C1143: x40+x60-y40_60 <=1 
C1144: x40+x62 <=1 
C1145: x40+x63 <=1 
C1146: x40+x65 <=1 
C1147: x41+x42 <=1 
C1148: x41+x44 <=1 
C1149: x41+x48-y41_48 <=1 
C1150: x41+x50 <=1 
C1151: x41+x51 <=1 
C1152: x41+x53 <=1 
C1153: x41+x56-y41_56 <=1 
C1154: x41+x58-y41_58 <=1 
C1155: x41+x59-y41_59 <=1 
C1156: x41+x60-y41_60 <=1 
C1157: x41+x61 <=1 
C1158: x41+x62 <=1 
C1159: x41+x63-y41_63 <=1 
C1160: x41+x65-y41_65 <=1 
C1161: x42+x49-y42_49 <=1 
C1162: x42+x56-y42_56 <=1 
C1163: x42+x57 <=1 
C1164: x42+x58-y42_58 <=1 
C1165: x42+x59-y42_59 <=1 
C1166: x42+x60 <=1 
C1167: x42+x61 <=1 
C1168: x42+x62 <=1 
C1169: x42+x63 <=1 
C1170: x42+x64-y42_64 <=1 
C1171: x43+x44 <=1 
C1172: x43+x46-y43_46 <=1 
C1173: x43+x47 <=1 
C1174: x43+x48-y43_48 <=1 
C1175: x43+x49 <=1 
C1176: x43+x51-y43_51 <=1 
C1177: x43+x57 <=1 
C1178: x43+x58-y43_58 <=1 
C1179: x43+x60-y43_60 <=1 
C1180: x43+x61-y43_61 <=1 
C1181: x43+x63 <=1 
C1182: x43+x65-y43_65 <=1 
C1183: x44+x46 <=1 
C1184: x44+x49 <=1 
C1185: x44+x51 <=1 
C1186: x44+x53 <=1 
C1187: x44+x54 <=1 
C1188: x44+x55-y44_55 <=1 
C1189: x44+x56-y44_56 <=1 
C1190: x44+x57-y44_57 <=1 
C1191: x44+x58 <=1 
C1192: x44+x59 <=1 
C1193: x44+x60 <=1 
C1194: x44+x61-y44_61 <=1 
C1195: x44+x63-y44_63 <=1 
C1196: x44+x64-y44_64 <=1 
C1197: x44+x65-y44_65 <=1 
C1198: x45+x46-y45_46 <=1 
C1199: x45+x47-y45_47 <=1 
C1200: x45+x48-y45_48 <=1 
C1201: x45+x51 <=1 
C1202: x45+x52-y45_52 <=1 
C1203: x45+x54 <=1 
C1204: x45+x55-y45_55 <=1 
C1205: x45+x56-y45_56 <=1 
C1206: x45+x57-y45_57 <=1 
C1207: x45+x61-y45_61 <=1 
C1208: x45+x62 <=1 
C1209: x45+x64 <=1 
C1210: x45+x65 <=1 
C1211: x46+x48 <=1 
C1212: x46+x49 <=1 
C1213: x46+x50 <=1 
C1214: x46+x51 <=1 
C1215: x46+x53-y46_53 <=1 
C1216: x46+x54 <=1 
C1217: x46+x56-y46_56 <=1 
C1218: x46+x57-y46_57 <=1 
C1219: x46+x60-y46_60 <=1 
C1220: x46+x63 <=1 
C1221: x46+x64 <=1 
C1222: x47+x48-y47_48 <=1 
C1223: x47+x49 <=1 
C1224: x47+x50-y47_50 <=1 
C1225: x47+x53 <=1 
C1226: x47+x54 <=1 
C1227: x47+x56 <=1 
C1228: x47+x57 <=1 
C1229: x47+x64-y47_64 <=1 
C1230: x48+x50-y48_50 <=1 
C1231: x48+x51 <=1 
C1232: x48+x56 <=1 
C1233: x48+x57-y48_57 <=1 
C1234: x48+x60 <=1 
C1235: x48+x63 <=1 
C1236: x49+x51-y49_51 <=1 
C1237: x49+x52-y49_52 <=1 
C1238: x49+x53-y49_53 <=1 
C1239: x49+x56 <=1 
C1240: x49+x57 <=1 
C1241: x49+x58 <=1 
C1242: x49+x59-y49_59 <=1 
C1243: x49+x60-y49_60 <=1 
C1244: x49+x61-y49_61 <=1 
C1245: x49+x63-y49_63 <=1 
C1246: x49+x65 <=1 
C1247: x50+x51 <=1 
C1248: x50+x54 <=1 
C1249: x50+x55 <=1 
C1250: x50+x56-y50_56 <=1 
C1251: x50+x57-y50_57 <=1 
C1252: x50+x58-y50_58 <=1 
C1253: x50+x59-y50_59 <=1 
C1254: x50+x61 <=1 
C1255: x50+x62-y50_62 <=1 
C1256: x50+x63-y50_63 <=1 
C1257: x50+x65-y50_65 <=1 
C1258: x51+x52 <=1 
C1259: x51+x53-y51_53 <=1 
C1260: x51+x55 <=1 
C1261: x51+x56 <=1 
C1262: x51+x57 <=1 
C1263: x51+x60 <=1 
C1264: x51+x61 <=1 
C1265: x51+x62 <=1 
C1266: x51+x63 <=1 
C1267: x51+x64-y51_64 <=1 
C1268: x51+x65-y51_65 <=1 
C1269: x52+x53-y52_53 <=1 
C1270: x52+x54 <=1 
C1271: x52+x55 <=1 
C1272: x52+x56-y52_56 <=1 
C1273: x52+x59-y52_59 <=1 
C1274: x52+x63 <=1 
C1275: x52+x64-y52_64 <=1 
C1276: x52+x65-y52_65 <=1 
C1277: x53+x60 <=1 
C1278: x53+x61-y53_61 <=1 
C1279: x53+x62 <=1 
C1280: x54+x55-y54_55 <=1 
C1281: x54+x60-y54_60 <=1 
C1282: x54+x61-y54_61 <=1 
C1283: x54+x63-y54_63 <=1 
C1284: x54+x64-y54_64 <=1 
C1285: x54+x65-y54_65 <=1 
C1286: x55+x57-y55_57 <=1 
C1287: x55+x58-y55_58 <=1 
C1288: x55+x59-y55_59 <=1 
C1289: x55+x61-y55_61 <=1 
C1290: x55+x63 <=1 
C1291: x55+x65-y55_65 <=1 
C1292: x56+x57-y56_57 <=1 
C1293: x56+x58 <=1 
C1294: x56+x59 <=1 
C1295: x56+x61 <=1 
C1296: x56+x63 <=1 
C1297: x56+x64-y56_64 <=1 
C1298: x57+x59-y57_59 <=1 
C1299: x57+x64-y57_64 <=1 
C1300: x58+x59-y58_59 <=1 
C1301: x58+x60-y58_60 <=1 
C1302: x58+x61 <=1 
C1303: x58+x62-y58_62 <=1 
C1304: x58+x64 <=1 
C1305: x59+x60-y59_60 <=1 
C1306: x59+x62-y59_62 <=1 
C1307: x59+x63-y59_63 <=1 
C1308: x59+x64 <=1 
C1309: x59+x65-y59_65 <=1 
C1310: x60+x61-y60_61 <=1 
C1311: x60+x62 <=1 
C1312: x60+x63 <=1 
C1313: x60+x65 <=1 
C1314: x61+x62 <=1 
C1315: x61+x63 <=1 
C1316: x61+x64 <=1 
C1317: x61+x65-y61_65 <=1 
C1318: x62+x63-y62_63 <=1 
C1319: x62+x65 <=1 
C1320: x63+x64 <=1 
C1321: x63+x65-y63_65 <=1 
C1322: x64+x65 <=1 

binary
x0
x1
x2
x3
x4
x5
x6
x7
x8
x9
x10
x11
x12
x13
x14
x15
x16
x17
x18
x19
x20
x21
x22
x23
x24
x25
x26
x27
x28
x29
x30
x31
x32
x33
x34
x35
x36
x37
x38
x39
x40
x41
x42
x43
x44
x45
x46
x47
x48
x49
x50
x51
x52
x53
x54
x55
x56
x57
x58
x59
x60
x61
x62
x63
x64
x65
