problem_generation/data/GISP/train/er_n=66_m=1322_p=0.60_SET2_setparam=100.00_alpha=0.50_836.sol
objective value:                                 1270
x9                                                  1 	(obj:100)
x12                                                 1 	(obj:100)
x25                                                 1 	(obj:100)
x27                                                 1 	(obj:100)
x33                                                 1 	(obj:100)
x34                                                 1 	(obj:100)
x35                                                 1 	(obj:100)
x36                                                 1 	(obj:100)
x38                                                 1 	(obj:100)
x41                                                 1 	(obj:100)
x43                                                 1 	(obj:100)
x46                                                 1 	(obj:100)
x58                                                 1 	(obj:100)
y33_38                                              1 	(obj:-1)
y36_43                                              1 	(obj:-1)
y25_33                                              1 	(obj:-1)
y35_46                                              1 	(obj:-1)
y12_58                                              1 	(obj:-1)
y35_41                                              1 	(obj:-1)
y43_58                                              1 	(obj:-1)
y9_33                                               1 	(obj:-1)
y27_41                                              1 	(obj:-1)
y12_25                                              1 	(obj:-1)
y12_34                                              1 	(obj:-1)
y12_43                                              1 	(obj:-1)
y38_46                                              1 	(obj:-1)
y27_35                                              1 	(obj:-1)
y33_36                                              1 	(obj:-1)
y41_58                                              1 	(obj:-1)
y25_41                                              1 	(obj:-1)
y25_27                                              1 	(obj:-1)
y36_41                                              1 	(obj:-1)
y33_35                                              1 	(obj:-1)
y12_46                                              1 	(obj:-1)
y38_58                                              1 	(obj:-1)
y12_41                                              1 	(obj:-1)
y43_46                                              1 	(obj:-1)
y27_43                                              1 	(obj:-1)
y9_12                                               1 	(obj:-1)
y38_43                                              1 	(obj:-1)
y12_35                                              1 	(obj:-1)
y27_46                                              1 	(obj:-1)
y33_43                                              1 	(obj:-1)
